Using license file /home/benedond/gurobi.lic
Using gurobi.env file
Set parameter Threads to value 1
Academic license - for non-commercial use only
Changed value of parameter TimeLimit to 300.0
   Prev: inf  Min: 0.0  Max: inf  Default: inf
Gurobi Optimizer version 9.0.1 build v9.0.1rc0 (linux64)
Optimize a model with 1700 rows, 840 columns and 6478 nonzeros
Model fingerprint: 0xb58cd5d5
Variable types: 20 continuous, 820 integer (800 binary)
Coefficient statistics:
  Matrix range     [2e-01, 3e+03]
  Objective range  [1e-03, 3e-01]
  Bounds range     [1e+00, 1e+00]
  RHS range        [1e+00, 3e+03]

---------------------------------------------------------------------------
Multi-objectives: starting optimization with 1 objectives ... 
---------------------------------------------------------------------------
---------------------------------------------------------------------------

Multi-objectives: optimize objective 1 (min avg power cons) ...
---------------------------------------------------------------------------

Optimize a model with 1700 rows, 840 columns and 6478 nonzeros
Variable types: 20 continuous, 820 integer (800 binary)
Coefficient statistics:
  Matrix range     [2e-01, 3e+03]
  Objective range  [1e-03, 3e-01]
  Bounds range     [1e+00, 1e+00]
  RHS range        [1e+00, 3e+03]
Presolve removed 1084 rows and 537 columns
Presolve time: 0.05s
Presolved: 616 rows, 303 columns, 2235 nonzeros
Variable types: 15 continuous, 288 integer (273 binary)

Root relaxation: objective 1.584692e+00, 152 iterations, 0.00 seconds

    Nodes    |    Current Node    |     Objective Bounds      |     Work
 Expl Unexpl |  Obj  Depth IntInf | Incumbent    BestBd   Gap | It/Node Time

     0     0    1.58469    0   46          -    1.58469      -     -    0s
H    0     0                       4.3568242    1.58469  63.6%     -    0s
H    0     0                       4.3523956    1.58469  63.6%     -    0s
     0     0    1.76280    0   45    4.35240    1.76280  59.5%     -    0s
H    0     0                       3.9436264    1.76280  55.3%     -    0s
     0     0    1.76774    0   48    3.94363    1.76774  55.2%     -    0s
     0     0    1.89015    0   53    3.94363    1.89015  52.1%     -    0s
H    0     0                       3.7441539    1.89015  49.5%     -    0s
H    0     0                       3.6745055    1.89015  48.6%     -    0s
     0     0    1.89221    0   55    3.67451    1.89221  48.5%     -    0s
     0     0    1.97768    0   60    3.67451    1.97768  46.2%     -    0s
H    0     0                       3.5622967    1.97768  44.5%     -    0s
     0     0    1.98011    0   62    3.56230    1.98011  44.4%     -    0s
     0     0    2.05741    0   60    3.56230    2.05741  42.2%     -    0s
     0     0    2.07183    0   60    3.56230    2.07183  41.8%     -    0s
     0     0    2.07422    0   64    3.56230    2.07422  41.8%     -    0s
     0     0    2.07479    0   65    3.56230    2.07479  41.8%     -    0s
     0     0    2.07483    0   63    3.56230    2.07483  41.8%     -    0s
     0     0    2.13204    0   61    3.56230    2.13204  40.1%     -    0s
     0     0    2.15810    0   68    3.56230    2.15810  39.4%     -    0s
     0     0    2.16197    0   68    3.56230    2.16197  39.3%     -    0s
     0     0    2.16269    0   71    3.56230    2.16269  39.3%     -    0s
     0     0    2.16292    0   76    3.56230    2.16292  39.3%     -    0s
     0     0    2.17191    0   66    3.56230    2.17191  39.0%     -    0s
H    0     0                       3.2857802    2.17191  33.9%     -    0s
     0     0    2.17356    0   80    3.28578    2.17356  33.8%     -    0s
     0     0    2.17492    0   83    3.28578    2.17492  33.8%     -    0s
     0     0    2.17510    0   70    3.28578    2.17510  33.8%     -    0s
     0     0    2.17649    0   87    3.28578    2.17649  33.8%     -    0s
H    0     0                       3.2487912    2.17649  33.0%     -    0s
     0     0    2.17843    0   90    3.24879    2.17843  32.9%     -    0s
     0     0    2.17890    0   93    3.24879    2.17890  32.9%     -    0s
     0     0    2.17911    0  104    3.24879    2.17911  32.9%     -    0s
     0     0    2.17912    0  104    3.24879    2.17912  32.9%     -    0s
     0     0    2.18218    0   66    3.24879    2.18218  32.8%     -    0s
     0     0    2.18266    0   72    3.24879    2.18266  32.8%     -    0s
     0     0    2.18286    0   91    3.24879    2.18286  32.8%     -    0s
     0     0    2.18478    0   94    3.24879    2.18478  32.8%     -    0s
     0     0    2.18662    0   83    3.24879    2.18662  32.7%     -    0s
     0     0    2.18667    0   84    3.24879    2.18667  32.7%     -    0s
     0     0    2.18785    0   73    3.24879    2.18785  32.7%     -    0s
     0     0    2.18800    0   95    3.24879    2.18800  32.7%     -    0s
     0     0    2.18842    0   74    3.24879    2.18842  32.6%     -    0s
     0     0    2.18842    0   74    3.24879    2.18842  32.6%     -    0s
H    0     0                       3.0873187    2.18842  29.1%     -    0s
     0     2    2.18855    0   73    3.08732    2.18855  29.1%     -    0s
H  516   149                       3.0240659    2.48064  18.0%  31.3    0s
H  560   150                       3.0044506    2.49953  16.8%  33.3    1s
* 1444   239              31       3.0036264    2.64181  12.0%  36.9    2s
* 1643   260              23       3.0028022    2.67689  10.9%  37.8    2s
* 2426   178              30       2.9717692    2.81393  5.31%  38.9    4s
* 2427   176              30       2.9701758    2.81393  5.26%  38.9    4s
* 2429   154              30       2.9512637    2.81393  4.65%  38.9    4s
* 2430   152              30       2.9496703    2.81393  4.60%  38.8    4s
* 2492   142              34       2.9483626    2.82625  4.14%  38.5    4s
* 2493   136              34       2.9440110    2.82625  4.00%  38.5    4s

Cutting planes:
  Gomory: 6
  Cover: 95
  Implied bound: 100
  Clique: 15
  MIR: 147
  StrongCG: 7
  Inf proof: 3
  Zero half: 11
  RLT: 33
  Relax-and-lift: 186

Explored 2774 nodes (103445 simplex iterations) in 4.27 seconds
Thread count was 1 (of 4 available processors)

Solution count 10: 2.94401 2.94836 2.94967 ... 3.02407

Optimal solution found (tolerance 1.00e-04)
Best objective 2.944010999291e+00, best bound 2.944010999291e+00, gap 0.0000%

---------------------------------------------------------------------------
Multi-objectives: solved in 4.28 seconds, solution count 10

